100
100
99
98
98
97
96
96
96
95
95
94
94
93
93
92
92
91
90
89
87
86
85
84
82
82
80
79
79
78
78
77
76
75
75
75
75
74
74
74
73
70
69
67
67
66
64
64
63
62
62
62
61
61
60
60
59
59
58
58
57
57
56
55
54
54
54
51
50
49
49
49
48
48
48
47
47
44
43
43
42
41
41
41
40
40
40
40
39
39
38
36
36
36
35
35
33
32
32
32
31
31
